This is Ipopt version 3.14.14, running with linear solver MUMPS 5.6.2.

Number of nonzeros in equality constraint Jacobian...:    28309
Number of nonzeros in inequality constraint Jacobian.:     3060
Number of nonzeros in Lagrangian Hessian.............:    32022

Total number of variables............................:     5580
                     variables with only lower bounds:        0
                variables with lower and upper bounds:       69
                     variables with only upper bounds:        0
Total number of equality constraints.................:     5575
Total number of inequality constraints...............:     1530
        inequality constraints with only lower bounds:        0
   inequality constraints with lower and upper bounds:     1512
        inequality constraints with only upper bounds:       18

iter    objective    inf_pr   inf_du lg(mu)  ||d||  lg(rg) alpha_du alpha_pr  ls
   0  1.2026175e+03 1.88e+00 1.03e+02  -1.0 0.00e+00    -  0.00e+00 0.00e+00   0
   1  1.3039700e+03 1.80e+00 9.26e+01  -1.0 8.90e+01    -  5.34e-03 3.96e-02h  1
   2  3.4903068e+03 1.12e+00 1.12e+02  -1.0 4.66e+01    -  1.35e-02 3.94e-01h  1
   3  1.1118098e+04 6.31e-01 2.46e+02  -1.0 4.46e+01    -  2.64e-01 1.00e+00h  1
   4  1.1150812e+04 5.22e-01 2.14e+02  -1.0 5.12e+01    -  2.47e-01 1.81e-01h  1
   5  1.1163183e+04 4.90e-01 2.01e+02  -1.0 8.69e+00    -  5.52e-01 6.35e-02h  1
   6  1.1202274e+04 4.17e-01 1.71e+02  -1.0 8.85e+00    -  8.17e-01 1.75e-01h  1
   7  1.1213289e+04 3.60e-01 3.20e+02  -1.0 2.09e+00    -  6.91e-01 1.37e-01h  1
   8  1.1227588e+04 3.58e-01 2.50e+02  -1.0 7.32e+00    -  8.41e-02 6.42e-03H  1
   9  1.1277901e+04 3.48e-01 2.50e+02  -1.0 1.06e+01    -  2.69e-02 6.31e-02h  3
iter    objective    inf_pr   inf_du lg(mu)  ||d||  lg(rg) alpha_du alpha_pr  ls
  10  1.1298513e+04 2.96e-01 1.93e+02  -1.0 1.33e+00  -2.0 5.38e-01 1.47e-01h  1
  11  1.1319099e+04 2.94e-01 2.22e+02  -1.0 2.29e+01    -  3.11e-03 1.45e-02h  4
  12  1.1400186e+04 2.31e-01 2.79e+02  -1.0 2.81e+00  -1.6 1.58e-01 4.46e-01h  2
  13  1.1423115e+04 2.15e-01 3.28e+02  -1.0 2.84e+00  -2.1 3.45e-01 7.73e-02h  1
  14  1.1400809e+04 2.11e-01 3.66e+02  -1.0 4.03e+00  -2.5 2.72e-01 9.36e-02f  1
  15  1.1491079e+04 5.59e-01 1.25e+02  -1.0 1.30e+00    -  2.59e-01 1.00e+00h  1
  16  1.1483162e+04 3.28e-01 4.84e+01  -1.0 1.97e+00    -  1.00e+00 1.00e+00h  1
  17  1.1463570e+04 2.89e-01 6.59e+02  -1.0 3.11e+00  -2.1 1.00e+00 1.54e-01f  1
  18  1.1390591e+04 3.46e-01 9.54e+02  -1.0 2.12e+01  -2.6 3.89e-01 1.17e-01f  2
  19  1.1414163e+04 2.85e-01 3.62e+02  -1.0 8.35e+00  -3.1 5.01e-01 2.67e-01H  1
iter    objective    inf_pr   inf_du lg(mu)  ||d||  lg(rg) alpha_du alpha_pr  ls
  20  1.1367638e+04 3.45e-01 2.70e+02  -1.0 7.02e+00  -2.6 2.35e-01 2.50e-01f  2
  21  1.1307366e+04 6.83e-01 2.01e+02  -1.0 1.63e+01    -  1.78e-01 1.42e-01f  1
  22  1.1317678e+04 1.76e-01 4.62e+02  -1.0 1.48e+00    -  3.51e-01 1.00e+00f  1
  23  1.1323673e+04 9.80e-02 2.37e+02  -1.0 6.47e-01  -1.3 5.05e-01 4.57e-01h  1
  24  1.1350180e+04 7.99e-02 9.39e+01  -1.0 9.46e-01  -1.8 6.57e-01 6.30e-01H  1
  25  1.1341710e+04 9.33e-02 1.33e+02  -1.0 1.42e+01  -2.3 2.50e-01 2.59e-02f  3
  26  1.1338620e+04 9.41e-02 1.69e+02  -1.0 6.47e+00  -2.7 2.86e-01 2.53e-02h  4
  27  1.1334950e+04 8.04e-02 7.31e+01  -1.0 3.33e-01  -2.3 1.00e+00 1.46e-01h  1
  28  1.1314535e+04 8.51e-02 1.80e+01  -1.0 1.89e+00    -  1.00e+00 9.08e-01H  1
  29  1.1325682e+04 7.38e-02 4.81e+00  -1.0 8.57e-01    -  1.00e+00 1.00e+00f  1
iter    objective    inf_pr   inf_du lg(mu)  ||d||  lg(rg) alpha_du alpha_pr  ls
  30  1.1325170e+04 3.63e-03 4.89e-01  -1.0 1.49e-01    -  1.00e+00 1.00e+00h  1
  31  1.1312972e+04 4.69e-02 7.42e+00  -2.5 1.16e+00    -  7.77e-01 5.39e-01f  1
  32  1.1311929e+04 9.25e-03 3.13e+00  -2.5 1.68e-01    -  1.00e+00 8.08e-01h  1
  33  1.1311795e+04 4.66e-05 2.13e-03  -2.5 2.18e-02    -  1.00e+00 1.00e+00h  1
  34  1.1311715e+04 9.19e-06 7.61e-01  -3.8 5.52e-03    -  1.00e+00 8.22e-01h  1
  35  1.1311705e+04 1.68e-06 2.55e-03  -3.8 3.61e-03    -  1.00e+00 1.00e+00f  1
  36  1.1311701e+04 2.90e-07 4.44e-02  -5.7 1.41e-03    -  1.00e+00 9.66e-01h  1
  37  1.1311701e+04 5.70e-09 6.62e-06  -5.7 2.67e-04    -  1.00e+00 1.00e+00f  1
  38  1.1311700e+04 3.03e-11 3.94e-08  -8.6 1.52e-05    -  1.00e+00 1.00e+00h  1
  39  1.1311700e+04 1.51e-14 4.20e-12 -10.0 4.26e-08    -  1.00e+00 1.00e+00h  1

Number of Iterations....: 39

                                   (scaled)                 (unscaled)
Objective...............:   1.5710695133506479e+03    1.1311700496124664e+04
Dual infeasibility......:   4.1992727611362269e-12    3.0234763880180832e-11
Constraint violation....:   1.5099033134902129e-14    1.5099033134902129e-14
Variable bound violation:   1.0999628763386227e-08    1.0999628763386227e-08
Complementarity.........:   9.0924112590749404e-11    6.5465361065339572e-10
Overall NLP error.......:   9.0924112590749404e-11    6.5465361065339572e-10


Number of objective function evaluations             = 71
Number of objective gradient evaluations             = 40
Number of equality constraint evaluations            = 71
Number of inequality constraint evaluations          = 71
Number of equality constraint Jacobian evaluations   = 40
Number of inequality constraint Jacobian evaluations = 40
Number of Lagrangian Hessian evaluations             = 39
Total seconds in IPOPT                               = 1.236

EXIT: Optimal Solution Found.
